276 374
148 93 74 164 165 144 78 120 110 163 133 70 132 86 120 57 145 139 109 81 138 70 137 150 125 74 84 91 149 66 93 56 168 80 135 152 169 69 106 140 70 82 57 176 148
108 90 227 121 134 217 118 120 106 156 87 242 213 197 182 234 230 233 219 206 198 214 95 230 213 116 227 229 230 223 109 99 232 148 212 125 139 96 110 177 158 140 195 206 161
602 741 853 166 462 966 818 512 222 665 872 422 969 367 567 245 758 899 292 847 867 504 882 780 780 958 896 502 934 668 204 468 586 819 283 231 279 747 623 269 601 790 276 697 397